#######################



#######################
Set parameter TimeLimit to value 500
Set parameter SoftMemLimit to value 125
Set parameter LogFile to value 1003-MIPFocus0-Presolve1-TimeLimit500-k16x240-6.log
Set parameter Presolve to value 1
Set parameter Seed to value 16
Using license file /opt/gurobi/gurobi.lic

Gurobi Optimizer version 10.0.3 build v10.0.3rc0 (linux64)
Copyright (c) 2023, Gurobi Optimization, LLC

Read MPS format model from file /miplib2010/k16x240.mps.bz2
Reading time = 0.23 seconds
k16x240: 256 rows, 480 columns, 960 nonzeros

CPU model: Intel(R) Xeon(R) E-2388G CPU @ 3.20GHz, instruction set [SSE2|AVX|AVX2|AVX512]
Thread count: 8 physical cores, 16 logical processors, using up to 16 threads

Optimize a model with 256 rows, 480 columns and 960 nonzeros
Model fingerprint: 0x4e80885f
Variable types: 240 continuous, 240 integer (240 binary)
Coefficient statistics:
  Matrix range     [1e+00, 1e+03]
  Objective range  [1e+00, 1e+03]
  Bounds range     [1e+00, 1e+03]
  RHS range        [4e+00, 4e+02]
Found heuristic solution: objective 20319.000000
Presolve time: 0.02s
Presolved: 256 rows, 480 columns, 960 nonzeros
Variable types: 240 continuous, 240 integer (240 binary)

Root relaxation: objective 2.769838e+03, 51 iterations, 0.00 seconds (0.00 work units)

    Nodes    |    Current Node    |     Objective Bounds      |     Work
 Expl Unexpl |  Obj  Depth IntInf | Incumbent    BestBd   Gap | It/Node Time

     0     0 2769.83800    0   14 20319.0000 2769.83800  86.4%     -    0s
H    0     0                    11359.000000 2769.83800  75.6%     -    0s
H    0     0                    11195.000000 2769.83800  75.3%     -    0s
H    0     0                    11074.000000 8084.69631  27.0%     -    0s
     0     0 8084.69631    0   26 11074.0000 8084.69631  27.0%     -    0s
H    0     0                    10916.000000 8084.69631  25.9%     -    0s
     0     0 8528.16906    0   24 10916.0000 8528.16906  21.9%     -    0s
H    0     0                    10888.000000 8539.15185  21.6%     -    0s
     0     0 8539.15185    0   34 10888.0000 8539.15185  21.6%     -    0s
     0     0 8548.03675    0   29 10888.0000 8548.03675  21.5%     -    0s
H    0     0                    10779.000000 8548.03675  20.7%     -    0s
     0     0 8733.37944    0   34 10779.0000 8733.37944  19.0%     -    0s
H    0     0                    10717.000000 8733.37944  18.5%     -    0s
     0     0 8793.89382    0   28 10717.0000 8793.89382  17.9%     -    0s
     0     0 8813.48501    0   28 10717.0000 8813.48501  17.8%     -    0s
     0     0 8817.87868    0   34 10717.0000 8817.87868  17.7%     -    0s
     0     0 8881.16565    0   36 10717.0000 8881.16565  17.1%     -    0s
     0     0 8904.44438    0   29 10717.0000 8904.44438  16.9%     -    0s
     0     0 8940.13754    0   39 10717.0000 8940.13754  16.6%     -    0s
     0     0 8942.25974    0   39 10717.0000 8942.25974  16.6%     -    0s
     0     0 9071.55340    0   40 10717.0000 9071.55340  15.4%     -    0s
     0     0 9079.68710    0   39 10717.0000 9079.68710  15.3%     -    0s
     0     0 9093.73528    0   35 10717.0000 9093.73528  15.1%     -    0s
     0     0 9103.39264    0   32 10717.0000 9103.39264  15.1%     -    0s
     0     0 9107.59493    0   35 10717.0000 9107.59493  15.0%     -    0s
     0     0 9118.36473    0   29 10717.0000 9118.36473  14.9%     -    0s
     0     0 9120.48783    0   27 10717.0000 9120.48783  14.9%     -    0s
     0     0 9129.19463    0   41 10717.0000 9129.19463  14.8%     -    0s
     0     0 9129.19463    0   41 10717.0000 9129.19463  14.8%     -    0s
     0     2 9132.48393    0   41 10717.0000 9132.48393  14.8%     -    0s
H   31    40                    10711.000000 9298.06052  13.2%  53.1    0s
H   34    40                    10681.000000 9298.06052  12.9%  54.0    0s
H   38    40                    10678.000000 9303.03382  12.9%  53.2    0s
H  125   138                    10674.000000 9303.03382  12.8%  34.1    0s
 37896 13683 10098.7502   20   25 10674.0000 10045.5411  5.89%  28.8    5s
 76411 19287 10614.6011   28   16 10674.0000 10204.0689  4.40%  29.8   10s
 124218 16552 10517.6752   29   17 10674.0000 10374.8500  2.80%  30.4   15s

Cutting planes:
  Gomory: 2
  Lift-and-project: 13
  Cover: 80
  Implied bound: 39
  MIR: 182
  Flow cover: 316
  Flow path: 41
  Inf proof: 1
  Zero half: 12
  Network: 50
  Relax-and-lift: 2

Explored 163495 nodes (4797766 simplex iterations) in 19.24 seconds (22.27 work units)
Thread count was 16 (of 16 available processors)

Solution count 10: 10674 10678 10681 ... 11195

Optimal solution found (tolerance 1.00e-04)
Best objective 1.067400000000e+04, best bound 1.067400000000e+04, gap 0.0000%
